56287
23, 17, 48, 19, 41, 5, 35, 37, 7, 20, 50, 24, 38, 8, 44, 32, 13, 51, 40, 43, 3, 6, 28, 55, 49, 26, 47, 54, 34, 53, 22, 10, 16, 2, 14, 9, 12, 30, 4, 18, 42, 33, 1, 27, 31, 25, 45, 11, 52, 15, 36, 39, 46, 29, 21
